p cnf 3041 260
11 0
-255 -273 0
-255 -275 0
-255 -276 0
-255 -277 0
-255 -279 0
-255 -280 0
-255 -281 0
-255 -282 0
-255 -283 0
-255 -284 0
-255 -285 0
-1443 -1444 0
-1443 -1445 0
-1443 -1448 0
-1443 -1449 0
-1443 -1452 0
-1443 -1453 0
-1443 -1456 0
-1443 -1457 0
-1443 -1460 0
-1443 -1461 0
-1443 -1464 0
-1443 -1465 0
-1443 -1468 0
-1443 -1469 0
-1443 -1472 0
-1443 -1473 0
-1443 -1474 0
-1443 -1475 0
-1443 -1476 0
-1443 -1477 0
-1443 -1478 0
-1443 -1479 0
-1443 -1480 0
-1443 -1481 0
-1443 -1482 0
-1443 -1483 0
-1443 -1484 0
-1443 -1485 0
-1443 -1486 0
-1443 -1487 0
-1443 -1488 0
-1443 -1489 0
-1443 -1490 0
-1443 -1491 0
-1443 -1492 0
-1443 -1493 0
-1443 -1494 0
-1443 -1495 0
-1443 -1496 0
-1443 -1497 0
-1443 -1498 0
-1443 -1499 0
-1443 -1500 0
-1443 -1501 0
-1443 -1502 0
-1443 -1503 0
-1443 -1504 0
-1443 -1505 0
-1444 -1445 0
-1444 -1447 0
-1444 -1449 0
-1444 -1451 0
-1444 -1453 0
-1444 -1455 0
-1444 -1457 0
-1444 -1459 0
-1444 -1461 0
-1444 -1463 0
-1444 -1465 0
-1444 -1467 0
-1444 -1469 0
-1444 -1471 0
-1444 -1473 0
-1444 -1475 0
-1444 -1477 0
-1444 -1479 0
-1444 -1481 0
-1444 -1483 0
-1444 -1485 0
-1444 -1487 0
-1444 -1489 0
-1444 -1491 0
-1444 -1493 0
-1444 -1495 0
-1444 -1497 0
-1444 -1499 0
-1444 -1501 0
-1444 -1503 0
-1444 -1505 0
-1445 -1446 0
-1445 -1450 0
-1445 -1458 0
-1445 -1474 0
-1446 -1447 0
-1446 -1449 0
-1446 -1451 0
-1446 -1453 0
-1446 -1455 0
-1446 -1457 0
-1446 -1459 0
-1446 -1461 0
-1446 -1463 0
-1446 -1465 0
-1446 -1467 0
-1446 -1469 0
-1446 -1471 0
-1446 -1473 0
-1446 -1475 0
-1446 -1477 0
-1446 -1479 0
-1446 -1481 0
-1446 -1483 0
-1446 -1485 0
-1446 -1487 0
-1446 -1489 0
-1446 -1491 0
-1446 -1493 0
-1446 -1495 0
-1446 -1497 0
-1446 -1499 0
-1446 -1501 0
-1446 -1503 0
-1446 -1505 0
-1447 -1450 0
-1447 -1458 0
-1447 -1474 0
-1449 -1450 0
-1449 -1458 0
-1449 -1474 0
-1450 -1451 0
-1450 -1453 0
-1450 -1455 0
-1450 -1457 0
-1450 -1459 0
-1450 -1461 0
-1450 -1463 0
-1450 -1465 0
-1450 -1467 0
-1450 -1469 0
-1450 -1471 0
-1450 -1473 0
-1450 -1475 0
-1450 -1477 0
-1450 -1479 0
-1450 -1481 0
-1450 -1483 0
-1450 -1485 0
-1450 -1487 0
-1450 -1489 0
-1450 -1491 0
-1450 -1493 0
-1450 -1495 0
-1450 -1497 0
-1450 -1499 0
-1450 -1501 0
-1450 -1503 0
-1450 -1505 0
-1451 -1458 0
-1451 -1474 0
-1453 -1458 0
-1453 -1474 0
-1455 -1458 0
-1455 -1474 0
-1457 -1458 0
-1457 -1474 0
-1458 -1459 0
-1458 -1461 0
-1458 -1463 0
-1458 -1465 0
-1458 -1467 0
-1458 -1469 0
-1458 -1471 0
-1458 -1473 0
-1458 -1475 0
-1458 -1477 0
-1458 -1479 0
-1458 -1481 0
-1458 -1483 0
-1458 -1485 0
-1458 -1487 0
-1458 -1489 0
-1458 -1491 0
-1458 -1493 0
-1458 -1495 0
-1458 -1497 0
-1458 -1499 0
-1458 -1501 0
-1458 -1503 0
-1458 -1505 0
-1459 -1474 0
-1461 -1474 0
-1463 -1474 0
-1465 -1474 0
-1467 -1474 0
-1469 -1474 0
-1471 -1474 0
-1473 -1474 0
-1474 -1475 0
-1474 -1477 0
-1474 -1479 0
-1474 -1481 0
-1474 -1483 0
-1474 -1485 0
-1474 -1487 0
-1474 -1489 0
-1474 -1491 0
-1474 -1493 0
-1474 -1495 0
-1474 -1497 0
-1474 -1499 0
-1474 -1501 0
-1474 -1503 0
-1474 -1505 0
-11 -1 30 32 34 36 38 40 42 44 0
-27 -1 87 88 91 92 95 96 99 100 103 104 107 108 111 112 115 116 0
-28 -1 270 271 272 273 274 275 276 277 278 279 280 281 282 283 284 285 0
-87 -1 1444 1445 1448 1449 1452 1453 1456 1457 1460 1461 1464 1465 1468 1469 1472 1473 1476 1477 1480 1481 1484 1485 1488 1489 1492 1493 1496 1497 1500 1501 1504 1505 0
-88 -1 1444 1445 1448 1449 1452 1453 1456 1457 1460 1461 1464 1465 1468 1469 1472 1473 1476 1477 1480 1481 1484 1485 1488 1489 1492 1493 1496 1497 1500 1501 1504 1505 0
-91 -1 1444 1445 1448 1449 1452 1453 1456 1457 1460 1461 1464 1465 1468 1469 1472 1473 1476 1477 1480 1481 1484 1485 1488 1489 1492 1493 1496 1497 1500 1501 1504 1505 0
-92 -1 1444 1445 1448 1449 1452 1453 1456 1457 1460 1461 1464 1465 1468 1469 1472 1473 1476 1477 1480 1481 1484 1485 1488 1489 1492 1493 1496 1497 1500 1501 1504 1505 0
-95 -1 1444 1445 1448 1449 1452 1453 1456 1457 1460 1461 1464 1465 1468 1469 1472 1473 1476 1477 1480 1481 1484 1485 1488 1489 1492 1493 1496 1497 1500 1501 1504 1505 0
-96 -1 1444 1445 1448 1449 1452 1453 1456 1457 1460 1461 1464 1465 1468 1469 1472 1473 1476 1477 1480 1481 1484 1485 1488 1489 1492 1493 1496 1497 1500 1501 1504 1505 0
-99 -1 1444 1445 1448 1449 1452 1453 1456 1457 1460 1461 1464 1465 1468 1469 1472 1473 1476 1477 1480 1481 1484 1485 1488 1489 1492 1493 1496 1497 1500 1501 1504 1505 0
-100 -1 1444 1445 1448 1449 1452 1453 1456 1457 1460 1461 1464 1465 1468 1469 1472 1473 1476 1477 1480 1481 1484 1485 1488 1489 1492 1493 1496 1497 1500 1501 1504 1505 0
-103 -1 1474 1475 1476 1477 1478 1479 1480 1481 1482 1483 1484 1485 1486 1487 1488 1489 1490 1491 1492 1493 1494 1495 1496 1497 1498 1499 1500 1501 1502 1503 1504 1505 0
-104 -1 1474 1475 1476 1477 1478 1479 1480 1481 1482 1483 1484 1485 1486 1487 1488 1489 1490 1491 1492 1493 1494 1495 1496 1497 1498 1499 1500 1501 1502 1503 1504 1505 0
-107 -1 1474 1475 1476 1477 1478 1479 1480 1481 1482 1483 1484 1485 1486 1487 1488 1489 1490 1491 1492 1493 1494 1495 1496 1497 1498 1499 1500 1501 1502 1503 1504 1505 0
-108 -1 1474 1475 1476 1477 1478 1479 1480 1481 1482 1483 1484 1485 1486 1487 1488 1489 1490 1491 1492 1493 1494 1495 1496 1497 1498 1499 1500 1501 1502 1503 1504 1505 0
-111 -1 1474 1475 1476 1477 1478 1479 1480 1481 1482 1483 1484 1485 1486 1487 1488 1489 1490 1491 1492 1493 1494 1495 1496 1497 1498 1499 1500 1501 1502 1503 1504 1505 0
-112 -1 1474 1475 1476 1477 1478 1479 1480 1481 1482 1483 1484 1485 1486 1487 1488 1489 1490 1491 1492 1493 1494 1495 1496 1497 1498 1499 1500 1501 1502 1503 1504 1505 0
-115 -1 1474 1475 1476 1477 1478 1479 1480 1481 1482 1483 1484 1485 1486 1487 1488 1489 1490 1491 1492 1493 1494 1495 1496 1497 1498 1499 1500 1501 1502 1503 1504 1505 0
-116 -1 1474 1475 1476 1477 1478 1479 1480 1481 1482 1483 1484 1485 1486 1487 1488 1489 1490 1491 1492 1493 1494 1495 1496 1497 1498 1499 1500 1501 1502 1503 1504 1505 0
-255 -1 1443 1445 1447 1449 1451 1453 1455 1457 1459 1461 1463 1465 1467 1469 1471 1473 1475 1477 1479 1481 1483 1485 1487 1489 1491 1493 1495 1497 1499 1501 1503 1505 0
-11 -1 27 28 0
-30 -1 255 256 258 262 270 0
-32 -1 255 256 257 258 259 260 262 263 264 266 270 271 272 274 278 0
-34 -1 0
-36 -1 0
-38 -1 0
-40 -1 0
-42 -1 0
-44 -1 0
-255 -1 1443 1444 1446 1450 1458 1474 0
-256 -1 0
-257 -1 0
-262 -1 0
-263 -1 0
-264 -1 0
-258 -1 0
-259 -1 0
-260 -1 0
-266 -1 0
-270 -1 0
-271 -1 0
-272 -1 0
-274 -1 0
-278 -1 0
1 0
